\ Model portfolio
\ LP format - for model browsing. Use MPS format to capture full model detail.
Minimize
 [ 2.9998175218969692e-04 C0 ^2 + 0.000722496 C0 * C1 + 0.000355793 C0 * C2
   + 1.1686782883305928e-04 C0 * C3 + 0.000131027 C0 * C4
   + 0.00363499325936605 C1 ^2 + 8.8126319663473928e-04 C1 * C2
   + 4.1578920017854378e-04 C1 * C3 + 0.000446814 C1 * C4
   + 0.00105031254818349 C2 ^2 + 2.3482476002960022e-04 C2 * C3
   + 0.000338828 C2 * C4 + 4.2039578253236996e-04 C3 ^2
   + 1.6702838538927339e-04 C3 * C4 + 6.4617850228518628e-04 C4 ^2 ] / 2 
Subject To
 budget: C0 + C1 + C2 + C3 + C4 = 1
Bounds
End
